% Auto-generated by scripts/generate_dzn.py
% problem_type   = regex
% instance       = regex_13
% source_json    = instances_json/1_medium_blowup/regex_13.json
% blowup         = 8.545454545454545
% representation = DFA

mode = 0;

var_count = 18;
Q = 188;
S = 2;
q0 = 1;
F = {117, 118, 119, 120, 121, 122, 123, 124, 125, 126, 127, 128, 129, 130, 131, 132, 133, 134, 135, 136, 137, 138, 139, 140, 141, 142, 143, 144, 145, 146, 147, 148, 149, 150, 151, 152, 153, 154, 155, 156, 157, 158, 159, 160, 161, 162, 163, 164, 165, 166, 167, 168, 169, 170, 171, 172, 173, 174, 175, 176, 177, 178, 179, 180, 181, 182, 183, 184, 185, 186, 187, 188};
d_dfa = array2d(1..188, 1..2, [
  1, 2,
  1, 3,
  1, 4,
  6, 5,
  8, 7,
  10, 9,
  12, 11,
  14, 13,
  16, 15,
  16, 17,
  19, 18,
  21, 20,
  23, 22,
  23, 24,
  26, 25,
  26, 27,
  26, 28,
  30, 29,
  32, 31,
  34, 33,
  34, 35,
  37, 36,
  37, 38,
  37, 39,
  41, 40,
  43, 42,
  43, 44,
  43, 45,
  47, 46,
  49, 48,
  51, 50,
  51, 52,
  54, 53,
  54, 55,
  54, 56,
  58, 57,
  60, 59,
  60, 61,
  60, 62,
  64, 63,
  66, 65,
  68, 67,
  68, 69,
  68, 70,
  72, 71,
  74, 73,
  76, 75,
  78, 77,
  78, 79,
  81, 80,
  81, 82,
  81, 83,
  85, 84,
  87, 86,
  87, 88,
  87, 89,
  91, 90,
  93, 92,
  95, 94,
  95, 96,
  95, 97,
  99, 98,
  101, 100,
  103, 102,
  105, 104,
  105, 106,
  108, 107,
  108, 109,
  108, 110,
  112, 111,
  114, 113,
  116, 115,
  118, 117,
  120, 119,
  122, 121,
  122, 123,
  125, 124,
  125, 126,
  125, 127,
  129, 128,
  131, 130,
  131, 132,
  131, 133,
  135, 134,
  137, 136,
  139, 138,
  139, 140,
  139, 141,
  143, 142,
  145, 144,
  147, 146,
  149, 148,
  149, 150,
  152, 151,
  152, 153,
  152, 154,
  156, 155,
  158, 157,
  160, 159,
  162, 161,
  164, 163,
  166, 165,
  166, 167,
  169, 168,
  169, 170,
  169, 171,
  173, 172,
  175, 174,
  175, 176,
  175, 177,
  179, 178,
  181, 180,
  183, 182,
  185, 184,
  187, 186,
  187, 188,
  118, 117,
  120, 119,
  122, 121,
  122, 123,
  125, 124,
  125, 126,
  125, 127,
  129, 128,
  131, 130,
  131, 132,
  131, 133,
  135, 134,
  137, 136,
  139, 138,
  139, 140,
  139, 141,
  143, 142,
  145, 144,
  147, 146,
  149, 148,
  149, 150,
  152, 151,
  152, 153,
  152, 154,
  156, 155,
  158, 157,
  160, 159,
  162, 161,
  164, 163,
  166, 165,
  166, 167,
  169, 168,
  169, 170,
  169, 171,
  173, 172,
  175, 174,
  175, 176,
  175, 177,
  179, 178,
  181, 180,
  183, 182,
  185, 184,
  187, 186,
  187, 188,
  30, 29,
  32, 31,
  34, 33,
  34, 35,
  37, 36,
  37, 38,
  37, 39,
  41, 40,
  43, 42,
  43, 44,
  43, 45,
  8, 7,
  10, 9,
  1, 3,
  1, 2,
  1, 4,
  6, 5,
  12, 11,
  14, 13,
  16, 15,
  16, 17,
  19, 18,
  21, 20,
  23, 22,
  23, 24,
  26, 25,
  26, 27,
  26, 28
]);
d_nfa = array2d(1..188, 1..2, [
  {}, {},
  {}, {},
  {}, {},
  {}, {},
  {}, {},
  {}, {},
  {}, {},
  {}, {},
  {}, {},
  {}, {},
  {}, {},
  {}, {},
  {}, {},
  {}, {},
  {}, {},
  {}, {},
  {}, {},
  {}, {},
  {}, {},
  {}, {},
  {}, {},
  {}, {},
  {}, {},
  {}, {},
  {}, {},
  {}, {},
  {}, {},
  {}, {},
  {}, {},
  {}, {},
  {}, {},
  {}, {},
  {}, {},
  {}, {},
  {}, {},
  {}, {},
  {}, {},
  {}, {},
  {}, {},
  {}, {},
  {}, {},
  {}, {},
  {}, {},
  {}, {},
  {}, {},
  {}, {},
  {}, {},
  {}, {},
  {}, {},
  {}, {},
  {}, {},
  {}, {},
  {}, {},
  {}, {},
  {}, {},
  {}, {},
  {}, {},
  {}, {},
  {}, {},
  {}, {},
  {}, {},
  {}, {},
  {}, {},
  {}, {},
  {}, {},
  {}, {},
  {}, {},
  {}, {},
  {}, {},
  {}, {},
  {}, {},
  {}, {},
  {}, {},
  {}, {},
  {}, {},
  {}, {},
  {}, {},
  {}, {},
  {}, {},
  {}, {},
  {}, {},
  {}, {},
  {}, {},
  {}, {},
  {}, {},
  {}, {},
  {}, {},
  {}, {},
  {}, {},
  {}, {},
  {}, {},
  {}, {},
  {}, {},
  {}, {},
  {}, {},
  {}, {},
  {}, {},
  {}, {},
  {}, {},
  {}, {},
  {}, {},
  {}, {},
  {}, {},
  {}, {},
  {}, {},
  {}, {},
  {}, {},
  {}, {},
  {}, {},
  {}, {},
  {}, {},
  {}, {},
  {}, {},
  {}, {},
  {}, {},
  {}, {},
  {}, {},
  {}, {},
  {}, {},
  {}, {},
  {}, {},
  {}, {},
  {}, {},
  {}, {},
  {}, {},
  {}, {},
  {}, {},
  {}, {},
  {}, {},
  {}, {},
  {}, {},
  {}, {},
  {}, {},
  {}, {},
  {}, {},
  {}, {},
  {}, {},
  {}, {},
  {}, {},
  {}, {},
  {}, {},
  {}, {},
  {}, {},
  {}, {},
  {}, {},
  {}, {},
  {}, {},
  {}, {},
  {}, {},
  {}, {},
  {}, {},
  {}, {},
  {}, {},
  {}, {},
  {}, {},
  {}, {},
  {}, {},
  {}, {},
  {}, {},
  {}, {},
  {}, {},
  {}, {},
  {}, {},
  {}, {},
  {}, {},
  {}, {},
  {}, {},
  {}, {},
  {}, {},
  {}, {},
  {}, {},
  {}, {},
  {}, {},
  {}, {},
  {}, {},
  {}, {},
  {}, {},
  {}, {},
  {}, {},
  {}, {},
  {}, {},
  {}, {},
  {}, {},
  {}, {},
  {}, {},
  {}, {},
  {}, {},
  {}, {}
]);
